5 5
2 35 1 77 4 52 0 31 3 87
3 68 1 52 0 80 2 7 4 22
1 93 0 75 2 56 4 97 3 58
4 93 2 64 1 12 3 7 0 55
3 62 1 90 2 73 0 98 4 77
-1
0 1 2 5
0 1 2 4 5
0 2 3 5
0 1 2 3 5
0 3 5
-2
50 167 445
94 184 298 298
224 235 473
124 236 213 358
344 448

524 7
11 7 23 3 19
10 6 21 17 1
0 16 12 22 8
5 20 18 14 4
15 13 2 9 24
